NAME          FUSBLEND
ROWS
 G  N
 G  AM-N
 G  NI-N
 G  UR-N
 G  AGROTAIN
 G  P
 G  K
 G  S
 G  MG
 G  B
 G  ZN
 G  DEN
 G  CU
 G  FE
 G  MN
 G  BAG50
 G  BAG80
 E  WT
 N  COST
 N  PRICE
COLUMNS
*234567890123456789012345678901234567890123456789012345678901
    I184600   N             0.180000   AM-N          0.180000   
    I184600   P             0.460000   DEN           0.016065   
    I184600   WT            1.000000   COST        183.000000   
    I184600   PRICE       228.750000   SCALE      2000.000000   
    I115200   N             0.110000   AM-N          0.110000   
    I115200   P             0.520000   DEN           0.015447   
    I115200   WT            1.000000   COST        183.000000   
    I115200   PRICE       228.750000   SCALE      2000.000000   
    I004600   P             0.460000   DEN           0.014365   
    I004600   WT            1.000000   COST        143.000000   
    I004600   PRICE       178.750000   SCALE      2000.000000   
    I340000   N             0.340000   AM-N          0.170000   
    I340000   NI-N          0.170000   DEN           0.022592   
    I340000   WT            1.000000   COST        150.000000   
    I340000   PRICE       187.500000   SCALE      2000.000000   
    I460000   N             0.460000   UR-N          0.460000   
    I460000   AGROTAIN     -0.010000   DEN           0.020918   
    I460000   WT            1.000000   COST        160.000000   
    I460000   PRICE       200.000000   SCALE      2000.000000   
    AGROTAIN  AGROTAIN      2.265000   DEN           0.013882   
    AGROTAIN  WT            1.000000   COST         38.000000   
    AGROTAIN  PRICE        45.000000   SCALE         8.830000   
    I210000   N             0.210000   AM-N          0.210000   
    I210000   S             0.240000   DEN           0.020491   
    I210000   WT            1.000000   COST        110.000000   
    I210000   PRICE       137.500000   SCALE      2000.000000   
    I000060   K             0.600000   DEN           0.015471   
    I000060   WT            1.000000   COST         90.000000   
    I000060   PRICE       112.500000   SCALE      2000.000000   
    I000050   K             0.500000   S             0.170000   
    I000050   DEN           0.013555   WT            1.000000   
    I000050   COST        140.000000   PRICE       175.000000   
    I000050   SCALE      2000.000000   
    I000022   K             0.220000   S             0.220000   
    I000022   MG            0.110000   DEN           0.010288   
    I000022   WT            1.000000   COST        110.000000   
    I000022   PRICE       137.500000   SCALE      2000.000000   
    I20S36Z   S             0.200000   ZN            0.360000   
    I20S36Z   DEN           0.013057   WT            1.000000   
    I20S36Z   COST        400.000000   PRICE       500.000000   
    I20S36Z   SCALE      2000.000000   
    I14B000   B             0.143000   DEN           0.021971   
    I14B000   WT            1.000000   COST        420.000000   
    I14B000   PRICE       525.000000   SCALE      2000.000000   
    I90S000   S             0.900000   DEN           0.015061   
    I90S000   WT            1.000000   COST        250.000000   
    I90S000   PRICE       312.500000   SCALE      2000.000000   
    IF305G    S             0.050000   B             0.020000   
    IF305G    ZN            0.200000   DEN           0.010041   
    IF305G    CU            0.020000   FE            0.080000   
    IF305G    MN            0.060000   WT            1.000000   
    IF305G    COST          0.150000   PRICE         0.175000   
    IF305G    SCALE         1.000000   
    SEED      DEN           0.020082   WT            1.000000   
    SEED      COST          0.250000   PRICE         0.350000   
    SEED      SCALE         1.000000   
    I000000   DEN           0.011156   WT            1.000000   
    I000000   COST         28.000000   PRICE        35.000000   
    I000000   SCALE      2000.000000   
    LASSO     DEN           0.015020   WT            1.000000   
    LASSO     COST          7.500000   PRICE         8.750000   
    LASSO     SCALE         2.225000   
    BAG50     BAG50         0.500000   COST          1.000000   
    BAG50     PRICE         1.250000   SCALE         1.000000   
    BAG80     BAG80         0.800000   COST          1.000000   
    BAG80     PRICE         1.250000   SCALE         1.000000   
    PRODUCT   BAG50        -0.010000   BAG80        -0.010000   
    PRODUCT   WT           -1.000000   COST          0.000000   
    PRODUCT   PRICE         0.000000   SCALE         1.000000   
*234567890123456789012345678901234567890123456789012345678901
RHS
RANGES
ENDATA
